Traveling Salesman Problem/TSP_generados/Aleatorio1621103530_15.tsp
NAME: Aleatorio1621103530_15.tsp
COMMENT: Randomly generated scenario
TYPE: TSP
DIMENSION: 15
EDGE_WEIGHT_TYPE: ATT
NODE_COORD_SECTION
1 5.0 2.07
2 19.76 47.9
3 21.41 11.73
4 47.14 18.23
5 14.29 46.22
6 31.79 23.91
7 30.75 21.44
8 3.6 13.3
9 23.14 40.79
10 23.25 4.1
11 18.51 45.92
12 25.91 8.6
13 2.95 30.21
14 10.28 24.46
15 0.4 13.34
