Traveling Salesman Problem/TSP_generados/Aleatorio1621103530_15.opt.tour
NAME: Aleatorio1621103530_15.opt.tour
COMMENT: Optimal solution for Aleatorio1621103530_15 (165.11297852588245)
TYPE: TOUR
DIMENSION: 15
TOUR_SECTION
1 10 3 12 4 7 6 9 2 11 5 13 14 8 15
-1
EOF
